r = [
0,109,35,163,282,212,31,112,135,166,118,184,238,105,68,54,125,135,66,284,61,208,287,112,248,190,0
];
p = [
0,6,2,13,28,9,21,15,29,8,19,11,18,24,20,14,2,20,13,19,3,17,21,13,12,5,0
];
e = [
0,3,7,13,9,17,14,20,2,15,2,6,15,17,11,11,15,1,7,13,12,10,16,12,16,11,0
];
d = [
0,197,37,227,315,278,119,207,193,174,137,234,325,200,106,130,235,255,157,303,175,225,308,178,260,235,334
];
d_bar = [
0,200,38,234,329,283,130,215,208,178,147,240,334,212,116,137,236,265,164,313,177,234,319,185,266,238,334
];
w = [
0,1,7,1.857142857,0.642857143,3.4,1.272727273,2.5,0.133333333,3.75,0.2,1,1.666666667,1.416666667,1.1,1.571428571,15,0.1,1,1.3,6,1.111111111,1.454545455,1.714285714,2.666666667,3.666666667,0
];
